BANDS BN
20
line mode
fractional
0.0  0.0  0.0  ! G
0.5  0.0  0.0  ! M

0.5  0.0  0.0  ! M
0.3  0.3  0.0  ! K

0.3  0.3  0.0  ! K
0.0  0.0  0.0  ! G

0.0  0.0  0.0  ! G
0.0  0.0  0.5  ! A

0.0  0.0  0.5  ! A
0.5  0.0  0.5  ! L

0.5  0.0  0.5  ! L
0.3  0.3  0.5  ! H

0.3  0.3  0.5  ! H
0.0  0.0  0.5  ! A
