SYSTEM = BN
NWRITE = 2
ENCUT = 300
ADDGRID = .TRUE.
LREAL = .FALSE.
PREC = Normal
EDIFF = 10-5
ISMEAR = 0
SIGMA = 0.05

ISPIN = 1
LORBIT = 11


LPLANE = .TRUE.
