B2 N2                                   
   1.00000000000000     
     1.2562373180985638   -2.1758668613107779    0.0000000000000000
     1.2562373180985638    2.1758668613107779    0.0000000000000000
     0.0000000000000000    0.0000000000000000    7.5264591741960665
   B    N 
     2     2
Direct
  0.0000000000000000  0.0000000000000000  0.0000000000000000
  0.3333333333333357  0.6666666666666643  0.5000000000000000
  0.3333333333333357  0.6666666666666643  0.0000000000000000
  0.6666666666666643  0.3333333333333357  0.5000000000000000
 
  0.00000000E+00  0.00000000E+00  0.00000000E+00
  0.00000000E+00  0.00000000E+00  0.00000000E+00
  0.00000000E+00  0.00000000E+00  0.00000000E+00
  0.00000000E+00  0.00000000E+00  0.00000000E+00
